
50
13299

415 238
288 556
845 195
444 578
529 708
552 642
339 6
640 668
901 269
72 454
561 859
265 867
656 132
624 92
46 754
113 432
529 708
859 647
798 990
824 861
138 995
351 903
577 569
367 408
231 163
923 840
636 492
399 486
477 294
700 331
760 505
780 643
335 310
968 150
764 596
271 945
172 562
431 979
261 181
878 797
10 538
818 32
162 175
812 721
433 819
132 132
986 684
419 888
979 241
323 829
